Version identifier: 22.1.0.0 | 2022-03-09 | 1a383f8ce
CPXPARAM_Read_DataCheck                          1
Tried aggregator 3 times.
MIP Presolve eliminated 11474 rows and 1872 columns.
MIP Presolve modified 244 coefficients.
Aggregator did 9863 substitutions.
Reduced MIP has 2090 rows, 10405 columns, and 22895 nonzeros.
Reduced MIP has 10387 binaries, 18 generals, 0 SOSs, and 0 indicators.
Presolve time = 0.08 sec. (83.32 ticks)
Probing fixed 27 vars, tightened 0 bounds.
Probing changed sense of 4 constraints.
Probing time = 0.02 sec. (3.39 ticks)
Tried aggregator 2 times.
Detecting symmetries...
MIP Presolve eliminated 23 rows and 32 columns.
Aggregator did 13 substitutions.
Reduced MIP has 2054 rows, 10360 columns, and 22742 nonzeros.
Reduced MIP has 10342 binaries, 18 generals, 0 SOSs, and 0 indicators.
Presolve time = 0.02 sec. (23.76 ticks)
Probing fixed 2 vars, tightened 0 bounds.
Probing time = 0.02 sec. (3.84 ticks)
Clique table members: 21404.
MIP emphasis: balance optimality and feasibility.
MIP search method: dynamic search.
Parallel mode: deterministic, using up to 8 threads.
Root relaxation solution time = 0.15 sec. (71.20 ticks)

        Nodes                                         Cuts/
   Node  Left     Objective  IInf  Best Integer    Best Bound    ItCnt     Gap

      0     0       18.4008  1470                     18.4008     1765         
      0     0       29.0000   541                    Cuts: 58     3595         
      0     0       29.0000   491                    Cuts: 45     5058         
      0     0       29.0000   319                    Cuts: 32     6601         
      0     0       29.0000   397                ZeroHalf: 28     7812         
*     0+    0                           34.0000       29.0000            14.71%
      0     0       29.0000   438       34.0000   ZeroHalf: 1     8253   14.71%
*     0+    0                           33.0000       29.0000            12.12%
*     0+    0                           31.0000       29.0000             6.45%
      0     0  -1.00000e+75     0       31.0000       29.0000     8253    6.45%
      0     2       29.0000   252       31.0000       29.0000     8253    6.45%
Elapsed time = 9.55 sec. (7397.13 ticks, tree = 0.02 MB, solutions = 3)
      1     3       30.0000   300       31.0000       29.0000    10358    6.45%
      3     4       30.0000   285       31.0000       29.0000    11101    6.45%
     12     5       30.0000   262       31.0000       29.0000    13392    6.45%
     25    25       30.0000   244       31.0000       29.0000    24219    6.45%
     84    52       30.0000    77       31.0000       29.0000    34283    6.45%
*   236   102      integral     0       30.0000       29.0000    53267    3.33%
    284     4    infeasible             30.0000       29.0000    72610    3.33%

Clique cuts applied:  1
Zero-half cuts applied:  37
Gomory fractional cuts applied:  12

Root node processing (before b&c):
  Real time             =    9.52 sec. (7387.64 ticks)
Parallel b&c, 8 threads:
  Real time             =    3.11 sec. (1995.13 ticks)
  Sync time (average)   =    1.15 sec.
  Wait time (average)   =    0.00 sec.
                          ------------
Total (root+branch&cut) =   12.64 sec. (9382.77 ticks)
